
  12    4
  10   10   10   10

   0   0   0   0   0   6 2 3 4 9 10 11 
   9  10  10  10  10   2 8 6 
   5  10  10  10  10   2 8 7 
   5  10  10  10  10   1 5 
   7  10  10  10  10   1 7 
   6  10  10  10  10   1 7 
   4  10  10  10  10   1 12
   6  10  10  10  10   1 12
   4  10  10  10  10   1 12
   9  10  10  10  10   1 12
   4  10  10  10  10   1 12
   0   0   0   0   0   0 
